src/cplex_evrptwspd/small_instances/Cplex5er/r203C5.dat
Depot_0 = {0};
Stations = {1,2,3,4,5,6,7,8,9,10,11,12,};
Customers = {13,14,15,16,17,};
Depot_N1 = {18};

v = 1.0;
C = 1000.0;
Q = 60.63;
g = 0.49;
h = 1.0;

XCoord = #[
0	:	35.0
1	:	35.0
2	:	35.0
3	:	35.0
4	:	64.0
5	:	64.0
6	:	64.0
7	:	20.0
8	:	20.0
9	:	20.0
10	:	15.0
11	:	15.0
12	:	15.0
13	:	47.0
14	:	22.0
15	:	57.0
16	:	65.0
17	:	6.0
18	:	35.0
]#;

YCoord = #[
0	:	35.0
1	:	35.0
2	:	35.0
3	:	35.0
4	:	37.0
5	:	37.0
6	:	37.0
7	:	61.0
8	:	61.0
9	:	61.0
10	:	42.0
11	:	42.0
12	:	42.0
13	:	47.0
14	:	27.0
15	:	48.0
16	:	20.0
17	:	68.0
18	:	35.0
]#;

q = #[
0	:	0.0
1	:	0.0
2	:	0.0
3	:	0.0
4	:	0.0
5	:	0.0
6	:	0.0
7	:	0.0
8	:	0.0
9	:	0.0
10	:	0.0
11	:	0.0
12	:	0.0
13	:	13.0
14	:	8.0
15	:	19.0
16	:	1.0
17	:	2.0
18	:	0.0
]#;

p = #[
0	:	0.0
1	:	0.0
2	:	0.0
3	:	0.0
4	:	0.0
5	:	0.0
6	:	0.0
7	:	0.0
8	:	0.0
9	:	0.0
10	:	0.0
11	:	0.0
12	:	0.0
13	:	0.0
14	:	3.0
15	:	4.0
16	:	5.0
17	:	28.0
18	:	0.0
]#;

e = #[
0	:	0.0
1	:	0.0
2	:	0.0
3	:	0.0
4	:	0.0
5	:	0.0
6	:	0.0
7	:	0.0
8	:	0.0
9	:	0.0
10	:	0.0
11	:	0.0
12	:	0.0
13	:	507.0
14	:	0.0
15	:	0.0
16	:	418.0
17	:	0.0
18	:	0.0
]#;

l = #[
0	:	1000.0
1	:	1000.0
2	:	1000.0
3	:	1000.0
4	:	1000.0
5	:	1000.0
6	:	1000.0
7	:	1000.0
8	:	1000.0
9	:	1000.0
10	:	1000.0
11	:	1000.0
12	:	1000.0
13	:	599.0
14	:	974.0
15	:	964.0
16	:	532.0
17	:	946.0
18	:	1000.0
]#;

s = #[
0	:	0.0
1	:	0.0
2	:	0.0
3	:	0.0
4	:	0.0
5	:	0.0
6	:	0.0
7	:	0.0
8	:	0.0
9	:	0.0
10	:	0.0
11	:	0.0
12	:	0.0
13	:	10.0
14	:	10.0
15	:	10.0
16	:	10.0
17	:	10.0
18	:	0.0
]#;
